c 209_3_checker_6cl.cnf
c
c field = 209
c formula set type = 3_checker_6cl
c
p cnf 6 6
410 
412 
414 
-409 
-406 
-418 
411 
413 
415 
-408 
-407 
-419 
326 
356 
386 
-297 
-266 
-446 
327 
357 
387 
-296 
-267 
-447 
320 
352 
384 
-289 
-256 
-448 
321 
353 
385 
-288 
-257 
-449 
